Route #1: 13 1 14 24 31 44 43 56 64 70 69 83 78 89 96 90 97 91 79 71 65 57 51 45 25 26 15 2 3 4 16 8 9 10 17 11 5 6 7 12 19 18 23 30 39 42 50 38 37 49 36 35 34 29 22 28 41 33 27 21 20 32 40 52 46 58 53 59 60 47 48 54 61 76 67 55 62 63 68 77 82 88 95 81 87 94 86 100 99 85 75 66 74 73 72 80 84 98 92 93
Cost 44840
